x = 15;
y = 11;
c = 61;
n = 26;

p = [76  81  34  47  85  81  49  88  81  27  65  15  78  100  69  73  39  99  12  17  69  64  37  12  31  49];
w = [3  7  6  4  9  2  3  3  8  7  4  8  7  7  8  2  4  1  4  5  8  5  5  2  5  5];
s = [6  5  1  7  4  2  9  10  6  4  11  6  9  2  7  11  11  2  11  6  11  9  5  11  3  8];
